
n_res = 8;
rcap = [21, 21, 20, 20, 622, 693, 598, 708];
rtype = [1, 1, 1, 1, 2, 2, 2, 2];
n_tasks = 50;
modes =  [{1, 2, 3, 4, 5, 6}, {7, 8, 9, 10, 11, 12}, {13, 14, 15, 16, 17, 18}, {19, 20, 21, 22, 23, 24}, {25, 26, 27, 28, 29, 30}, {31, 32, 33, 34, 35, 36}, {37, 38, 39, 40, 41, 42}, {43, 44, 45, 46, 47, 48}, {49, 50, 51, 52, 53, 54}, {55, 56, 57, 58, 59, 60}, {61, 62, 63, 64, 65, 66}, {67, 68, 69, 70, 71, 72}, {73, 74, 75, 76, 77, 78}, {79, 80, 81, 82, 83, 84}, {85, 86, 87, 88, 89, 90}, {91, 92, 93, 94, 95, 96}, {97, 98, 99, 100, 101, 102}, {103, 104, 105, 106, 107, 108}, {109, 110, 111, 112, 113, 114}, {115, 116, 117, 118, 119, 120}, {121, 122, 123, 124, 125, 126}, {127, 128, 129, 130, 131, 132}, {133, 134, 135, 136, 137, 138}, {139, 140, 141, 142, 143, 144}, {145, 146, 147, 148, 149, 150}, {151, 152, 153, 154, 155, 156}, {157, 158, 159, 160, 161, 162}, {163, 164, 165, 166, 167, 168}, {169, 170, 171, 172, 173, 174}, {175, 176, 177, 178, 179, 180}, {181, 182, 183, 184, 185, 186}, {187, 188, 189, 190, 191, 192}, {193, 194, 195, 196, 197, 198}, {199, 200, 201, 202, 203, 204}, {205, 206, 207, 208, 209, 210}, {211, 212, 213, 214, 215, 216}, {217, 218, 219, 220, 221, 222}, {223, 224, 225, 226, 227, 228}, {229, 230, 231, 232, 233, 234}, {235, 236, 237, 238, 239, 240}, {241, 242, 243, 244, 245, 246}, {247, 248, 249, 250, 251, 252}, {253, 254, 255, 256, 257, 258}, {259, 260, 261, 262, 263, 264}, {265, 266, 267, 268, 269, 270}, {271, 272, 273, 274, 275, 276}, {277, 278, 279, 280, 281, 282}, {283, 284, 285, 286, 287, 288}, {289, 290, 291, 292, 293, 294}, {295, 296, 297, 298, 299, 300}];
succ =  [{30, 24, 23, 20, 19, 18, 14, 13, 12}, {24, 17, 16, 13, 9}, {33, 30, 29, 22, 21, 18, 16, 14, 13}, {24, 23, 21, 10}, {23, 19, 16, 10}, {32, 26, 25, 23, 21, 19, 16}, {40, 24, 19, 18, 16, 15}, {33, 26, 24, 22, 18, 17}, {33, 26, 21, 18, 14}, {40, 34, 33, 30, 28, 18}, {34, 33, 29, 27, 14}, {40, 32, 16}, {50, 45, 39, 36, 35, 34, 32, 31, 26}, {40, 35, 32, 28, 25}, {33, 28, 27, 25}, {50, 39, 34, 31, 28, 27}, {40, 39, 31, 30, 28, 27}, {48, 36, 32, 27, 25}, {50, 48, 47, 46, 39, 35, 33, 31}, {48, 47, 46, 45, 40, 39, 36, 35, 31}, {49, 47, 44, 40, 28}, {48, 45, 40, 27}, {49, 40, 27}, {50, 49, 47, 46, 45, 44, 43, 37, 36}, {50, 45, 39, 31}, {48, 47, 46, 44, 40, 38, 37}, {47, 46, 44, 43, 38, 35}, {48, 46, 45, 43, 37, 36}, {48, 45, 44, 43, 42, 37}, {45, 43, 35}, {49, 44, 43, 38}, {47, 43, 37}, {45, 36}, {46, 44, 42}, {42, 37}, {42, 41}, {41}, {41}, {42}, {43}, {}, {}, {}, {}, {}, {}, {}, {}, {}, {}];
n_opt = 300;
dur = [4, 12, 15, 17, 23, 27, 2, 5, 6, 9, 16, 22, 1, 6, 12, 27, 28, 29, 1, 2, 3, 10, 19, 21, 3, 6, 8, 17, 21, 29, 9, 16, 22, 23, 26, 27, 6, 7, 8, 17, 18, 20, 5, 6, 7, 11, 15, 28, 2, 4, 10, 12, 22, 23, 1, 11, 13, 19, 23, 24, 4, 12, 14, 16, 23, 26, 4, 12, 13, 20, 22, 30, 11, 12, 15, 16, 17, 21, 9, 10, 14, 16, 17, 21, 2, 4, 15, 22, 26, 27, 1, 6, 13, 21, 25, 28, 10, 11, 12, 13, 14, 26, 2, 10, 17, 26, 27, 30, 11, 12, 13, 19, 20, 24, 11, 13, 14, 17, 19, 29, 2, 9, 12, 19, 28, 30, 2, 3, 11, 13, 18, 26, 3, 13, 14, 15, 18, 26, 6, 10, 11, 12, 24, 25, 9, 10, 17, 18, 21, 27, 18, 19, 20, 21, 23, 25, 5, 12, 13, 17, 18, 21, 2, 3, 5, 6, 15, 28, 4, 5, 10, 22, 24, 30, 1, 6, 7, 8, 12, 18, 1, 5, 14, 25, 28, 29, 1, 6, 14, 18, 23, 24, 6, 13, 14, 16, 18, 21, 7, 8, 13, 24, 27, 29, 1, 8, 12, 22, 24, 27, 1, 2, 10, 13, 24, 30, 6, 16, 17, 21, 22, 29, 2, 10, 14, 15, 23, 28, 14, 15, 24, 26, 28, 30, 6, 10, 17, 22, 25, 26, 13, 14, 15, 16, 18, 20, 3, 9, 13, 14, 17, 26, 3, 11, 21, 25, 26, 29, 2, 5, 9, 12, 13, 14, 3, 6, 7, 10, 19, 29, 4, 7, 11, 21, 27, 29, 6, 9, 14, 27, 28, 29, 6, 9, 11, 14, 15, 18, 15, 16, 20, 21, 26, 27, 2, 4, 12, 15, 19, 24];
rreq = [|4, 3, 3, 2, 2, 2, 4, 4, 3, 2, 1, 1, 4, 4, 4, 4, 4, 4, 1, 1, 1, 1, 1, 1, 5, 4, 4, 4, 3, 3, 5, 4, 4, 3, 3, 2, 4, 4, 3, 2, 2, 1, 4, 3, 3, 2, 2, 2, 1, 1, 1, 1, 1, 1, 3, 3, 3, 3, 2, 2, 4, 4, 4, 4, 4, 4, 3, 3, 2, 2, 2, 1, 1, 1, 1, 1, 1, 1, 5, 4, 4, 3, 3, 2, 2, 2, 2, 2, 2, 2, 5, 4, 4, 4, 4, 4, 5, 4, 4, 3, 3, 3, 3, 3, 3, 3, 2, 2, 4, 3, 3, 2, 2, 2, 2, 2, 2, 2, 1, 1, 5, 4, 4, 3, 2, 2, 5, 4, 4, 4, 4, 4, 4, 3, 3, 2, 2, 2, 3, 3, 3, 2, 2, 2, 3, 3, 3, 2, 1, 1, 5, 4, 4, 3, 3, 2, 4, 4, 4, 3, 2, 2, 2, 2, 2, 2, 2, 2, 3, 2, 2, 1, 1, 1, 5, 4, 4, 3, 2, 2, 2, 2, 2, 2, 1, 1, 5, 4, 4, 4, 4, 4, 4, 3, 3, 2, 2, 2, 2, 2, 2, 2, 1, 1, 4, 3, 3, 3, 3, 3, 5, 4, 4, 3, 3, 3, 3, 2, 2, 2, 2, 2, 5, 5, 5, 5, 5, 5, 2, 2, 2, 2, 2, 2, 4, 4, 4, 3, 2, 2, 3, 2, 2, 2, 2, 2, 4, 3, 3, 3, 2, 2, 4, 3, 3, 3, 2, 2, 4, 4, 4, 3, 3, 3, 5, 5, 5, 5, 5, 5, 5, 4, 4, 3, 3, 2, 2, 2, 2, 2, 1, 1, 1, 1, 1, 1, 1, 1, 1, 1, 1, 1, 1, 1, 2, 2, 2, 2, 2, 2
 |2, 2, 2, 2, 2, 2, 3, 2, 2, 2, 1, 1, 4, 4, 3, 3, 1, 1, 3, 2, 2, 2, 2, 2, 4, 3, 3, 2, 2, 1, 2, 2, 2, 2, 2, 2, 4, 3, 3, 3, 3, 3, 1, 1, 1, 1, 1, 1, 5, 3, 3, 3, 1, 1, 4, 4, 4, 4, 4, 4, 1, 1, 1, 1, 1, 1, 5, 5, 5, 5, 5, 5, 4, 3, 3, 2, 2, 1, 5, 4, 4, 4, 4, 4, 3, 2, 2, 1, 1, 1, 5, 5, 5, 5, 5, 5, 2, 2, 2, 2, 2, 2, 3, 3, 3, 3, 3, 3, 3, 3, 3, 2, 2, 2, 5, 4, 3, 2, 1, 1, 2, 2, 2, 1, 1, 1, 4, 4, 4, 4, 3, 3, 4, 4, 4, 3, 3, 3, 1, 1, 1, 1, 1, 1, 5, 4, 3, 2, 1, 1, 4, 4, 4, 3, 3, 2, 4, 4, 4, 3, 2, 2, 4, 4, 4, 3, 3, 3, 3, 3, 3, 3, 3, 3, 1, 1, 1, 1, 1, 1, 4, 3, 3, 3, 2, 2, 5, 3, 3, 3, 2, 1, 1, 1, 1, 1, 1, 1, 4, 3, 3, 2, 2, 1, 1, 1, 1, 1, 1, 1, 5, 4, 4, 4, 4, 4, 3, 3, 3, 2, 2, 2, 3, 2, 2, 2, 2, 2, 3, 3, 3, 3, 3, 3, 2, 2, 2, 2, 2, 2, 3, 2, 2, 2, 2, 2, 3, 3, 3, 3, 3, 3, 2, 2, 2, 2, 2, 2, 1, 1, 1, 1, 1, 1, 5, 4, 4, 3, 2, 2, 5, 5, 5, 5, 5, 5, 5, 4, 4, 3, 3, 3, 1, 1, 1, 1, 1, 1, 3, 3, 3, 3, 3, 3, 4, 4, 4, 3, 3, 2
 |2, 2, 2, 2, 2, 2, 3, 3, 3, 3, 3, 3, 3, 3, 3, 3, 2, 2, 2, 1, 1, 1, 1, 1, 3, 3, 3, 3, 3, 3, 3, 3, 3, 2, 2, 2, 2, 2, 2, 2, 2, 2, 4, 4, 3, 3, 2, 2, 4, 4, 4, 4, 3, 3, 4, 3, 2, 2, 1, 1, 3, 2, 2, 2, 2, 2, 2, 2, 2, 2, 1, 1, 3, 3, 3, 3, 2, 2, 2, 1, 1, 1, 1, 1, 5, 4, 4, 4, 3, 3, 2, 2, 2, 2, 1, 1, 5, 5, 5, 5, 5, 5, 3, 2, 2, 2, 2, 2, 4, 4, 3, 3, 3, 2, 3, 3, 3, 3, 3, 3, 4, 4, 4, 4, 4, 4, 3, 2, 2, 2, 1, 1, 4, 3, 3, 3, 3, 3, 3, 3, 3, 2, 2, 2, 3, 2, 2, 1, 1, 1, 4, 3, 3, 2, 2, 1, 4, 4, 3, 3, 1, 1, 2, 2, 2, 1, 1, 1, 3, 2, 2, 2, 2, 2, 3, 3, 3, 3, 3, 3, 3, 2, 2, 2, 2, 2, 5, 4, 3, 3, 3, 2, 5, 4, 4, 4, 4, 4, 4, 4, 4, 3, 3, 2, 4, 3, 3, 3, 2, 2, 5, 4, 4, 4, 4, 4, 2, 2, 2, 1, 1, 1, 3, 2, 2, 2, 2, 2, 2, 2, 2, 2, 2, 2, 3, 3, 3, 3, 3, 3, 4, 4, 4, 4, 4, 4, 4, 3, 3, 2, 2, 1, 4, 4, 4, 3, 3, 2, 3, 2, 2, 2, 1, 1, 4, 4, 4, 4, 4, 4, 5, 4, 4, 4, 4, 4, 4, 4, 4, 4, 4, 4, 5, 4, 4, 4, 4, 4, 2, 1, 1, 1, 1, 1, 4, 3, 3, 2, 2, 1
 |1, 1, 1, 1, 1, 1, 3, 3, 2, 2, 1, 1, 4, 4, 4, 4, 3, 3, 4, 4, 4, 4, 4, 4, 5, 4, 4, 4, 4, 4, 4, 4, 4, 4, 4, 4, 2, 1, 1, 1, 1, 1, 4, 4, 4, 3, 3, 2, 5, 4, 4, 4, 4, 4, 1, 1, 1, 1, 1, 1, 3, 2, 2, 1, 1, 1, 3, 3, 3, 2, 2, 1, 4, 4, 4, 3, 2, 2, 1, 1, 1, 1, 1, 1, 5, 4, 3, 3, 3, 2, 3, 3, 2, 2, 2, 1, 2, 2, 2, 2, 2, 2, 4, 4, 3, 3, 1, 1, 2, 1, 1, 1, 1, 1, 3, 3, 3, 2, 2, 2, 2, 2, 2, 2, 2, 2, 3, 3, 3, 2, 2, 1, 5, 4, 4, 4, 4, 4, 2, 1, 1, 1, 1, 1, 4, 3, 3, 2, 2, 2, 4, 3, 3, 3, 3, 3, 3, 3, 3, 3, 3, 3, 4, 4, 4, 4, 3, 3, 5, 4, 4, 4, 3, 3, 3, 3, 3, 2, 2, 2, 1, 1, 1, 1, 1, 1, 4, 4, 4, 4, 4, 4, 3, 3, 3, 2, 2, 1, 3, 2, 2, 2, 2, 2, 5, 5, 5, 5, 5, 5, 4, 4, 3, 3, 3, 2, 4, 4, 4, 3, 2, 2, 4, 4, 4, 3, 2, 2, 5, 5, 5, 5, 5, 5, 5, 4, 3, 2, 1, 1, 1, 1, 1, 1, 1, 1, 1, 1, 1, 1, 1, 1, 5, 4, 4, 3, 3, 3, 2, 2, 2, 2, 2, 2, 5, 4, 3, 2, 1, 1, 2, 2, 2, 2, 2, 2, 4, 4, 4, 4, 3, 3, 2, 2, 2, 2, 1, 1, 5, 4, 4, 4, 4, 4, 4, 3, 2, 2, 2, 1
 |21, 20, 19, 17, 16, 16, 21, 18, 18, 15, 14, 12, 7, 7, 6, 5, 4, 3, 18, 18, 17, 16, 14, 14, 16, 15, 11, 10, 4, 4, 29, 25, 23, 22, 21, 19, 1, 1, 1, 1, 1, 1, 26, 22, 19, 12, 8, 4, 25, 22, 19, 13, 8, 8, 27, 22, 21, 18, 13, 12, 15, 11, 10, 7, 5, 5, 29, 27, 26, 25, 25, 24, 6, 5, 5, 4, 4, 3, 14, 12, 11, 10, 10, 9, 28, 28, 27, 27, 27, 26, 11, 8, 6, 5, 4, 3, 19, 17, 16, 14, 14, 12, 24, 23, 20, 15, 14, 10, 19, 19, 18, 15, 15, 13, 29, 24, 21, 20, 16, 15, 28, 26, 24, 20, 18, 14, 9, 8, 7, 6, 3, 2, 27, 19, 18, 10, 6, 1, 13, 12, 11, 10, 10, 9, 27, 19, 18, 12, 10, 3, 22, 17, 13, 11, 8, 5, 25, 25, 24, 24, 23, 23, 13, 12, 11, 9, 7, 3, 22, 22, 22, 21, 21, 20, 13, 12, 10, 9, 9, 7, 29, 23, 18, 13, 10, 4, 24, 20, 16, 15, 7, 5, 14, 12, 9, 7, 4, 2, 12, 11, 9, 9, 6, 6, 13, 12, 11, 10, 10, 9, 24, 21, 16, 11, 8, 7, 10, 10, 10, 9, 9, 9, 15, 13, 13, 13, 12, 11, 26, 24, 24, 23, 23, 22, 24, 24, 24, 24, 24, 24, 20, 17, 15, 14, 11, 11, 24, 24, 24, 23, 23, 22, 29, 27, 25, 20, 18, 18, 14, 13, 11, 9, 6, 3, 8, 8, 8, 8, 8, 8, 4, 3, 3, 3, 3, 3, 25, 20, 18, 14, 11, 10, 27, 20, 16, 14, 9, 1, 27, 25, 23, 23, 22, 21, 26, 22, 18, 16, 10, 8
 |24, 24, 24, 24, 24, 24, 23, 21, 19, 17, 16, 14, 19, 19, 18, 18, 16, 16, 10, 9, 6, 4, 4, 2, 17, 15, 13, 10, 6, 4, 22, 19, 18, 17, 16, 13, 29, 24, 20, 15, 10, 4, 23, 19, 17, 12, 11, 5, 17, 16, 16, 15, 15, 14, 8, 8, 7, 6, 3, 2, 14, 12, 12, 12, 11, 10, 25, 24, 24, 24, 22, 22, 26, 26, 25, 23, 22, 22, 19, 15, 13, 9, 7, 2, 28, 27, 27, 27, 27, 27, 3, 3, 2, 2, 1, 1, 26, 25, 24, 20, 18, 16, 26, 22, 16, 16, 11, 8, 30, 25, 19, 14, 11, 10, 24, 19, 19, 14, 9, 4, 28, 28, 28, 28, 28, 28, 8, 8, 8, 8, 8, 8, 20, 20, 18, 16, 16, 13, 28, 26, 26, 26, 24, 24, 26, 24, 24, 24, 23, 22, 27, 24, 16, 14, 9, 8, 29, 23, 22, 18, 17, 13, 23, 19, 13, 12, 7, 3, 15, 14, 13, 12, 11, 10, 28, 24, 22, 20, 20, 18, 20, 18, 16, 12, 10, 7, 25, 25, 25, 24, 24, 24, 18, 18, 18, 17, 17, 16, 19, 18, 18, 18, 18, 18, 16, 13, 10, 8, 6, 3, 21, 18, 16, 15, 12, 10, 13, 13, 13, 12, 12, 12, 19, 15, 15, 13, 11, 9, 7, 6, 6, 5, 4, 4, 22, 20, 17, 14, 11, 8, 14, 10, 10, 6, 4, 4, 19, 16, 13, 10, 6, 4, 13, 11, 11, 8, 7, 6, 15, 15, 15, 15, 15, 15, 17, 16, 14, 12, 10, 8, 12, 11, 10, 8, 7, 6, 25, 23, 20, 19, 18, 14, 27, 18, 16, 13, 7, 3, 25, 24, 24, 23, 22, 22, 26, 25, 25, 25, 25, 25
 |26, 25, 23, 18, 17, 14, 20, 15, 14, 10, 4, 1, 27, 23, 20, 15, 15, 11, 12, 11, 10, 10, 9, 8, 30, 26, 25, 20, 19, 18, 13, 11, 11, 9, 9, 8, 11, 11, 9, 9, 8, 7, 15, 15, 13, 12, 10, 9, 22, 21, 21, 21, 20, 20, 27, 26, 26, 25, 24, 22, 17, 16, 10, 9, 6, 1, 25, 24, 23, 20, 19, 18, 6, 4, 4, 4, 2, 2, 2, 1, 1, 1, 1, 1, 21, 20, 15, 10, 9, 6, 17, 15, 14, 12, 9, 9, 27, 25, 24, 23, 22, 21, 25, 24, 20, 19, 13, 12, 10, 9, 7, 5, 5, 4, 21, 21, 19, 17, 16, 16, 13, 13, 11, 8, 6, 5, 24, 20, 17, 11, 10, 7, 17, 12, 12, 8, 5, 5, 13, 12, 12, 12, 11, 11, 12, 11, 9, 8, 7, 5, 19, 19, 16, 14, 11, 9, 27, 25, 24, 22, 21, 18, 15, 13, 12, 9, 9, 5, 8, 7, 7, 7, 7, 7, 17, 14, 12, 8, 6, 5, 15, 14, 14, 12, 12, 11, 13, 12, 10, 10, 8, 8, 16, 16, 14, 14, 13, 11, 23, 23, 22, 22, 20, 20, 2, 2, 2, 2, 2, 2, 29, 27, 24, 22, 19, 16, 23, 18, 15, 14, 10, 8, 29, 28, 26, 26, 24, 24, 22, 17, 14, 12, 8, 7, 8, 8, 8, 7, 7, 7, 24, 20, 17, 11, 7, 3, 25, 21, 20, 18, 14, 13, 24, 22, 21, 21, 19, 18, 21, 17, 13, 11, 5, 2, 13, 11, 9, 9, 7, 5, 17, 14, 14, 11, 10, 10, 15, 12, 9, 7, 5, 3, 30, 28, 26, 26, 24, 24, 6, 6, 5, 5, 5, 4, 25, 21, 20, 14, 13, 11
 |12, 10, 9, 9, 8, 7, 23, 21, 20, 19, 15, 15, 14, 11, 9, 9, 6, 4, 22, 21, 21, 21, 21, 21, 4, 4, 4, 4, 3, 3, 25, 24, 23, 22, 20, 19, 6, 6, 4, 4, 3, 2, 26, 23, 23, 20, 20, 18, 26, 25, 24, 24, 24, 23, 11, 10, 10, 8, 8, 6, 24, 24, 23, 22, 20, 20, 19, 16, 12, 11, 9, 6, 24, 23, 23, 22, 21, 19, 27, 26, 25, 22, 21, 20, 30, 22, 20, 14, 12, 9, 14, 11, 10, 8, 6, 5, 8, 8, 8, 8, 8, 8, 28, 26, 23, 20, 18, 16, 13, 11, 9, 8, 5, 4, 25, 22, 18, 17, 11, 9, 18, 15, 14, 11, 8, 6, 19, 18, 18, 18, 18, 18, 27, 23, 21, 20, 17, 15, 28, 26, 24, 22, 21, 18, 27, 25, 25, 25, 23, 23, 21, 20, 20, 19, 16, 16, 20, 18, 16, 15, 12, 11, 27, 21, 19, 12, 11, 5, 11, 9, 7, 6, 3, 2, 25, 18, 18, 14, 8, 3, 23, 23, 21, 19, 17, 13, 24, 21, 18, 16, 12, 10, 27, 27, 27, 27, 27, 27, 11, 11, 11, 11, 11, 11, 22, 21, 20, 20, 19, 19, 20, 19, 17, 14, 9, 7, 28, 28, 28, 27, 27, 26, 28, 27, 26, 25, 24, 24, 18, 17, 12, 12, 8, 4, 22, 21, 19, 18, 17, 17, 18, 15, 9, 7, 3, 3, 21, 19, 19, 18, 17, 17, 16, 11, 10, 9, 6, 5, 13, 10, 9, 7, 5, 4, 9, 6, 6, 3, 2, 1, 22, 19, 17, 16, 13, 11, 21, 18, 16, 13, 11, 10, 14, 12, 9, 7, 6, 2, 23, 22, 21, 21, 21, 20, 29, 28, 27, 26, 25, 25|];